(set-option :produce-abducts true)
(set-option :produce-assignments true)
(set-option :incremental true)
(set-logic QF_UFLIA)
(declare-fun op_2 () Int)
(declare-fun op_0 () Int)
(declare-fun op_1 () Int)
(assert (<= 0 op_0))
(get-abduct A (<= 0 (+ (+ op_1 op_0) op_2)))
(get-abduct-next)
(get-abduct-next)
(get-abduct-next)
(get-abduct-next)
